; vmt-chc-benchmarks/./cav12/bubblesort_init-1_000.smt2
(set-logic HORN)

(declare-fun |state| ( Bool Bool Bool Bool Bool Real Real Real Real Real Real Real Real Real Real Real Real Real Real Real Real Real Real Real Real Real Real Real Real Real Real Real Real ) Bool)

(assert
  (forall ( (A Bool) (B Bool) (C Bool) (D Real) (E Real) (F Real) (G Real) (H Real) (I Real) (J Real) (K Real) (L Real) (M Real) (N Real) (O Real) (P Real) (Q Real) (R Real) (S Real) (T Real) (U Real) (V Real) (W Real) (X Real) (Y Real) (Z Real) (A1 Real) (B1 Real) (C1 Real) (D1 Real) (E1 Real) (F1 Bool) (G1 Bool) ) 
    (=>
      (and
        (and (= B true) (not C) (not G1) (not F1) (= A true))
      )
      (state C B A F1 G1 E F G H I J K L P Q R S T U V W X Y Z A1 B1 C1 D1 E1 D M N O)
    )
  )
)
(assert
  (forall ( (A Bool) (B Bool) (C Bool) (D Bool) (E Bool) (F Bool) (G Bool) (H Bool) (I Real) (J Real) (K Real) (L Real) (M Real) (N Real) (O Real) (P Real) (Q Real) (R Real) (S Real) (T Real) (U Real) (V Real) (W Real) (X Real) (Y Real) (Z Real) (A1 Real) (B1 Real) (C1 Real) (D1 Real) (E1 Real) (F1 Real) (G1 Real) (H1 Real) (I1 Real) (J1 Real) (K1 Real) (L1 Real) (M1 Real) (N1 Real) (O1 Real) (P1 Real) (Q1 Real) (R1 Real) (S1 Real) (T1 Real) (U1 Real) (V1 Real) (W1 Real) (X1 Real) (Y1 Real) (Z1 Real) (A2 Real) (B2 Real) (C2 Real) (D2 Real) (E2 Real) (F2 Real) (G2 Real) (H2 Real) (I2 Real) (J2 Real) (K2 Real) (L2 Real) (M2 Real) (N2 Real) (O2 Real) (P2 Real) (Q2 Bool) (R2 Bool) ) 
    (=>
      (and
        (state C
       B
       A
       Q2
       R2
       L
       N
       P
       R
       T
       V
       X
       Z
       H1
       J1
       L1
       N1
       P1
       R1
       T1
       V1
       X1
       Z1
       B2
       D2
       F2
       H2
       J2
       L2
       I
       A1
       C1
       E1)
        (let ((a!1 (or (and (= C2 0.0) (= L1 C2) (= Y A1))
               (and (= C2 1.0) (not (= C2 0.0)) (= L1 C2) (= Y C1))
               (and (= C2 2.0)
                    (not (= C2 1.0))
                    (not (= C2 0.0))
                    (= L1 C2)
                    (= Y E1))))
      (a!18 (or (and (= U1 I) (= U1 0.0) (= S A1))
                (and (= U1 I) (= U1 1.0) (not (= U1 0.0)) (= S C1))
                (and (= U1 I)
                     (= U1 2.0)
                     (not (= U1 1.0))
                     (not (= U1 0.0))
                     (= S E1))))
      (a!24 (and A
                 (not B)
                 (not C)
                 (not H)
                 G
                 (not F)
                 E
                 D
                 Q2
                 (not R2)
                 (<= 0.0 J)
                 (= L K)
                 (= N M)
                 (= P O)
                 (= R Q)
                 (= T S)
                 (= V U)
                 (= X W)
                 (= Z Y)
                 (= H1 G1)
                 (= J1 I1)
                 (= L1 K1)
                 (= F1 E1)
                 (= N1 M1)
                 (= D1 C1)
                 (= P1 O1)
                 (= B1 A1)
                 (= R1 Q1)
                 (= T1 S1)
                 (= V1 U1)
                 (= X1 W1)
                 (= Z1 Y1)
                 (= B2 A2)
                 (= D2 C2)
                 (= F2 E2)
                 (= H2 G2)
                 (= J2 I2)
                 (= L2 K2)
                 (= (+ J (* (- 1.0) I)) (- 1.0))))
      (a!27 (and A
                 (not B)
                 (not C)
                 (not H)
                 (not G)
                 F
                 (not E)
                 D
                 Q2
                 (not R2)
                 (not (<= 0.0 P2))
                 (= L K)
                 (= N M)
                 (= P O)
                 (= R Q)
                 (= T S)
                 (= V U)
                 (= X W)
                 (= Z Y)
                 (= H1 G1)
                 (= J1 I1)
                 (= L1 K1)
                 (= F1 E1)
                 (= N1 M1)
                 (= D1 C1)
                 (= P1 O1)
                 (= B1 A1)
                 (= R1 Q1)
                 (= T1 S1)
                 (= V1 U1)
                 (= X1 W1)
                 (= Z1 Y1)
                 (= B2 A2)
                 (= D2 C2)
                 (= F2 E2)
                 (= H2 G2)
                 (= J 0.0)
                 (= J2 I2)
                 (= L2 K2)
                 (= (+ I (* (- 1.0) P2)) 1.0))))
(let ((a!2 (and a!1 (= Y1 A1) (= M 0.0) (= (+ M (* (- 1.0) L1)) 1.0)))
      (a!3 (and a!1
                (= Y1 C1)
                (= M 1.0)
                (not (= M 0.0))
                (= (+ M (* (- 1.0) L1)) 1.0)))
      (a!4 (and a!1
                (= Y1 E1)
                (= M 2.0)
                (not (= M 1.0))
                (not (= M 0.0))
                (= (+ M (* (- 1.0) L1)) 1.0)))
      (a!19 (and a!18 (= Q1 A1) (= K 0.0) (= (+ K (* (- 1.0) I)) 1.0)))
      (a!20 (and a!18
                 (= Q1 C1)
                 (= K 1.0)
                 (not (= K 0.0))
                 (= (+ K (* (- 1.0) I)) 1.0)))
      (a!21 (and a!18
                 (= Q1 E1)
                 (= K 2.0)
                 (not (= K 1.0))
                 (not (= K 0.0))
                 (= (+ K (* (- 1.0) I)) 1.0)))
      (a!25 (and A
                 B
                 (not C)
                 (not H)
                 (not G)
                 (not F)
                 (not E)
                 (not D)
                 (not Q2)
                 R2
                 a!1
                 (= L K)
                 (= P O)
                 (= R Q)
                 (= T S)
                 (= V U)
                 (= X W)
                 (= H1 G1)
                 (= J1 I1)
                 (= L1 K1)
                 (= F1 E1)
                 (= N1 M1)
                 (= D1 C1)
                 (= P1 O1)
                 (= B1 A1)
                 (= R1 Q1)
                 (= T1 S1)
                 (= V1 U1)
                 (= X1 W1)
                 (= Z1 Y1)
                 (= B2 A2)
                 (not (= M 2.0))
                 (not (= M 1.0))
                 (not (= M 0.0))
                 (= F2 E2)
                 (= H2 G2)
                 (= J I)
                 (= J2 I2)
                 (= L2 K2)
                 (= (+ M (* (- 1.0) L1)) 1.0)))
      (a!26 (and A
                 (not B)
                 (not C)
                 (not H)
                 G
                 (not F)
                 (not E)
                 (not D)
                 (not Q2)
                 R2
                 a!18
                 (= N M)
                 (= P O)
                 (= R Q)
                 (= V U)
                 (= X W)
                 (= Z Y)
                 (= H1 G1)
                 (= J1 I1)
                 (= L1 K1)
                 (= F1 E1)
                 (= N1 M1)
                 (= D1 C1)
                 (= P1 O1)
                 (= B1 A1)
                 (= R1 Q1)
                 (= T1 S1)
                 (= X1 W1)
                 (= Z1 Y1)
                 (= B2 A2)
                 (= D2 C2)
                 (= F2 E2)
                 (not (= K 2.0))
                 (not (= K 1.0))
                 (not (= K 0.0))
                 (= H2 G2)
                 (= J I)
                 (= J2 I2)
                 (= L2 K2)
                 (= (+ K (* (- 1.0) I)) 1.0))))
(let ((a!5 (or (and (or a!2 a!3 a!4) (<= Y Y1) (= W1 1.0))
               (and (or a!2 a!3 a!4) (not (<= Y Y1)) (= W1 0.0))))
      (a!22 (and A
                 (not B)
                 (not C)
                 (not H)
                 (not G)
                 F
                 (not E)
                 D
                 (not Q2)
                 R2
                 (or a!19 a!20 a!21)
                 (<= Q1 S)
                 (not (<= 2.0 J))
                 (= N M)
                 (= P O)
                 (= R Q)
                 (= V U)
                 (= X W)
                 (= Z Y)
                 (= H1 G1)
                 (= J1 I1)
                 (= L1 K1)
                 (= F1 E1)
                 (= N1 M1)
                 (= D1 C1)
                 (= P1 O1)
                 (= B1 A1)
                 (= T1 S1)
                 (= X1 W1)
                 (= Z1 Y1)
                 (= B2 A2)
                 (= D2 C2)
                 (= F2 E2)
                 (= H2 G2)
                 (= J2 I2)
                 (= L2 K2)
                 (= (+ J (* (- 1.0) I)) 1.0))))
(let ((a!6 (and a!5
                (= E2 A1)
                (= G1 W1)
                (not (= G1 0.0))
                (= L1 G2)
                (= Q G2)
                (= Q 0.0)
                (= (+ L1 (* (- 1.0) A2)) (- 1.0))))
      (a!7 (and a!5
                (= E2 C1)
                (= G1 W1)
                (not (= G1 0.0))
                (= L1 G2)
                (= Q G2)
                (= Q 1.0)
                (not (= Q 0.0))
                (= (+ L1 (* (- 1.0) A2)) (- 1.0))))
      (a!8 (and a!5
                (= E2 E1)
                (= G1 W1)
                (not (= G1 0.0))
                (= L1 G2)
                (= Q G2)
                (= Q 2.0)
                (not (= Q 1.0))
                (not (= Q 0.0))
                (= (+ L1 (* (- 1.0) A2)) (- 1.0))))
      (a!23 (and A
                 B
                 (not C)
                 (not H)
                 (not G)
                 (not F)
                 E
                 (not D)
                 (not Q2)
                 R2
                 a!5
                 (= L K)
                 (= P O)
                 (= T S)
                 (= V U)
                 (= X W)
                 (= J1 I1)
                 (= G1 W1)
                 (not (= G1 0.0))
                 (= L1 G2)
                 (= L1 K1)
                 (= F1 E1)
                 (= N1 M1)
                 (= D1 C1)
                 (= P1 O1)
                 (= B1 A1)
                 (= R1 Q1)
                 (= T1 S1)
                 (= V1 U1)
                 (= Q G2)
                 (not (= Q 2.0))
                 (not (= Q 1.0))
                 (not (= Q 0.0))
                 (= F2 E2)
                 (= J I)
                 (= J2 I2)
                 (= L2 K2)
                 (= (+ L1 (* (- 1.0) A2)) (- 1.0)))))
(let ((a!9 (or (and (or a!6 a!7 a!8) (= O1 A2) (= O1 0.0) (= I1 E2) (= O A1))
               (and (or a!6 a!7 a!8)
                    (= O1 A2)
                    (= O1 1.0)
                    (not (= O1 0.0))
                    (= I1 E2)
                    (= O C1))
               (and (or a!6 a!7 a!8)
                    (= O1 A2)
                    (= O1 2.0)
                    (not (= O1 1.0))
                    (not (= O1 0.0))
                    (= I1 E2)
                    (= O E1)))))
(let ((a!10 (or (and a!9
                     (= E1 N2)
                     (= M1 O2)
                     (= W M1)
                     (= U G2)
                     (= U 1.0)
                     (not (= U 0.0))
                     (= O W))
                (and a!9
                     (= C1 O2)
                     (= M1 N2)
                     (= W M1)
                     (= U G2)
                     (= U 2.0)
                     (not (= U 1.0))
                     (not (= U 0.0))
                     (= O W))))
      (a!16 (or (and a!9
                     (= F1 E1)
                     (= D1 M1)
                     (= W M1)
                     (= U G2)
                     (= U 1.0)
                     (not (= U 0.0))
                     (= O W))
                (and a!9
                     (= F1 M1)
                     (= D1 C1)
                     (= W M1)
                     (= U G2)
                     (= U 2.0)
                     (not (= U 1.0))
                     (not (= U 0.0))
                     (= O W)))))
(let ((a!11 (or (and a!10 (= A1 M2))
                (and a!9
                     (= C1 O2)
                     (= E1 N2)
                     (= M1 M2)
                     (= W M1)
                     (= U G2)
                     (= U 0.0)
                     (= O W))))
      (a!17 (and A
                 B
                 (not C)
                 (not H)
                 (not G)
                 (not F)
                 (not E)
                 D
                 (not Q2)
                 R2
                 (or (and a!16 (= B1 A1))
                     (and a!9
                          (= F1 E1)
                          (= D1 C1)
                          (= B1 M1)
                          (= W M1)
                          (= U G2)
                          (= U 0.0)
                          (= O W)))
                 (= L K)
                 (= T S)
                 (= S1 A2)
                 (not (= S1 2.0))
                 (not (= S1 1.0))
                 (not (= S1 0.0))
                 (= I1 K2)
                 (= L1 K1)
                 (= R1 Q1)
                 (= V1 U1)
                 (= J I)
                 (= J2 I2))))
(let ((a!12 (or (and a!11
                     (= S1 A2)
                     (= S1 1.0)
                     (not (= S1 0.0))
                     (= I1 K2)
                     (= F1 N2)
                     (= D1 K2))
                (and a!11
                     (= S1 A2)
                     (= S1 2.0)
                     (not (= S1 1.0))
                     (not (= S1 0.0))
                     (= I1 K2)
                     (= F1 K2)
                     (= D1 O2)))))
(let ((a!13 (or (and a!12 (= B1 M2))
                (and a!11
                     (= S1 A2)
                     (= S1 0.0)
                     (= I1 K2)
                     (= F1 N2)
                     (= D1 O2)
                     (= B1 K2))
                (and a!5
                     (= P O)
                     (= R Q)
                     (= V U)
                     (= X W)
                     (= J1 I1)
                     (= G1 W1)
                     (= G1 0.0)
                     (= F1 E1)
                     (= N1 M1)
                     (= D1 C1)
                     (= P1 O1)
                     (= B1 A1)
                     (= T1 S1)
                     (= B2 A2)
                     (= F2 E2)
                     (= H2 G2)
                     (= L2 K2)))))
(let ((a!14 (and A
                 B
                 (not C)
                 (not H)
                 (not G)
                 (not F)
                 E
                 D
                 (not Q2)
                 R2
                 a!13
                 (<= I K1)
                 (= L K)
                 (= T S)
                 (= R1 Q1)
                 (= V1 U1)
                 (= J I)
                 (= J2 I2)
                 (= (+ L1 (* (- 1.0) K1)) (- 1.0))))
      (a!15 (and A
                 B
                 (not C)
                 (not H)
                 G
                 F
                 (not E)
                 D
                 (not Q2)
                 R2
                 a!13
                 (not (<= I K1))
                 (= L K)
                 (= T S)
                 (= R1 Q1)
                 (= V1 U1)
                 (= J I)
                 (= J2 I2)
                 (= (+ L1 (* (- 1.0) K1)) (- 1.0)))))
  (or (and (not A) B (not C) (not H) G F E (not D) Q2 R2)
      a!14
      a!15
      a!17
      (and A
           B
           (not C)
           (not H)
           (not G)
           F
           E
           (not D)
           (not Q2)
           R2
           a!9
           (= L K)
           (= T S)
           (= L1 K1)
           (= F1 E1)
           (= D1 C1)
           (= B1 A1)
           (= R1 Q1)
           (= T1 S1)
           (= W M1)
           (= V1 U1)
           (= U G2)
           (not (= U 2.0))
           (not (= U 1.0))
           (not (= U 0.0))
           (= O W)
           (= J I)
           (= J2 I2)
           (= L2 K2))
      (and A
           B
           (not C)
           (not H)
           (not G)
           F
           (not E)
           (not D)
           (not Q2)
           R2
           (or a!6 a!7 a!8)
           (= L K)
           (= P O)
           (= T S)
           (= V U)
           (= X W)
           (= O1 A2)
           (not (= O1 2.0))
           (not (= O1 1.0))
           (not (= O1 0.0))
           (= I1 E2)
           (= L1 K1)
           (= F1 E1)
           (= N1 M1)
           (= D1 C1)
           (= B1 A1)
           (= R1 Q1)
           (= T1 S1)
           (= V1 U1)
           (= J I)
           (= J2 I2)
           (= L2 K2))
      (and A
           (not B)
           (not C)
           (not H)
           G
           (not F)
           E
           (not D)
           (not Q2)
           R2
           (or a!19 a!20 a!21)
           (not (<= Q1 S))
           (= N M)
           (= P O)
           (= R Q)
           (= V U)
           (= X W)
           (= Z Y)
           (= H1 G1)
           (= J1 I1)
           (= L1 K1)
           (= F1 E1)
           (= N1 M1)
           (= D1 C1)
           (= P1 O1)
           (= B1 A1)
           (= T1 S1)
           (= X1 W1)
           (= Z1 Y1)
           (= B2 A2)
           (= D2 C2)
           (= F2 E2)
           (= H2 G2)
           (= J I)
           (= J2 I2)
           (= L2 K2))
      a!22
      a!23
      (and (not A)
           (not B)
           (not C)
           (not H)
           G
           F
           E
           (not D)
           (not Q2)
           (not R2)
           (= L K)
           (= N M)
           (= P O)
           (= R Q)
           (= T S)
           (= V U)
           (= X W)
           (= Z Y)
           (= H1 G1)
           (= J1 I1)
           (= L1 K1)
           (= F1 E1)
           (= N1 M1)
           (= D1 C1)
           (= P1 O1)
           (= B1 A1)
           (= R1 Q1)
           (= T1 S1)
           (= V1 U1)
           (= X1 W1)
           (= Z1 Y1)
           (= B2 A2)
           (= D2 C2)
           (= F2 E2)
           (= H2 G2)
           (= J I)
           (= J2 I2)
           (= L2 K2))
      (and (not A)
           (not B)
           (not C)
           (not H)
           G
           F
           E
           (not D)
           (not Q2)
           R2
           (= L K)
           (= N M)
           (= P O)
           (= R Q)
           (= T S)
           (= V U)
           (= X W)
           (= Z Y)
           (= H1 G1)
           (= J1 I1)
           (= L1 K1)
           (= F1 E1)
           (= N1 M1)
           (= D1 C1)
           (= P1 O1)
           (= B1 A1)
           (= R1 Q1)
           (= T1 S1)
           (= V1 U1)
           (= X1 W1)
           (= Z1 Y1)
           (= B2 A2)
           (= D2 C2)
           (= F2 E2)
           (= H2 G2)
           (= J I)
           (= J2 I2)
           (= L2 K2))
      (and (not A)
           (not B)
           (not C)
           (not H)
           G
           F
           E
           (not D)
           Q2
           (not R2)
           (= L K)
           (= N M)
           (= P O)
           (= R Q)
           (= T S)
           (= V U)
           (= X W)
           (= Z Y)
           (= H1 G1)
           (= J1 I1)
           (= L1 K1)
           (= F1 E1)
           (= N1 M1)
           (= D1 C1)
           (= P1 O1)
           (= B1 A1)
           (= R1 Q1)
           (= T1 S1)
           (= V1 U1)
           (= X1 W1)
           (= Z1 Y1)
           (= B2 A2)
           (= D2 C2)
           (= F2 E2)
           (= H2 G2)
           (= J I)
           (= J2 I2)
           (= L2 K2))
      (and (not A)
           (not B)
           (not C)
           (not H)
           G
           F
           E
           (not D)
           Q2
           R2
           (= L K)
           (= N M)
           (= P O)
           (= R Q)
           (= T S)
           (= V U)
           (= X W)
           (= Z Y)
           (= H1 G1)
           (= J1 I1)
           (= L1 K1)
           (= F1 E1)
           (= N1 M1)
           (= D1 C1)
           (= P1 O1)
           (= B1 A1)
           (= R1 Q1)
           (= T1 S1)
           (= V1 U1)
           (= X1 W1)
           (= Z1 Y1)
           (= B2 A2)
           (= D2 C2)
           (= F2 E2)
           (= H2 G2)
           (= J I)
           (= J2 I2)
           (= L2 K2))
      (and (not A)
           B
           (not C)
           (not H)
           G
           F
           E
           (not D)
           (not Q2)
           (not R2)
           (= L K)
           (= N M)
           (= P O)
           (= R Q)
           (= T S)
           (= V U)
           (= X W)
           (= Z Y)
           (= H1 G1)
           (= J1 I1)
           (= L1 K1)
           (= F1 E1)
           (= N1 M1)
           (= D1 C1)
           (= P1 O1)
           (= B1 A1)
           (= R1 Q1)
           (= T1 S1)
           (= V1 U1)
           (= X1 W1)
           (= Z1 Y1)
           (= B2 A2)
           (= D2 C2)
           (= F2 E2)
           (= H2 G2)
           (= J I)
           (= J2 I2)
           (= L2 K2))
      (and (not A)
           B
           (not C)
           (not H)
           G
           F
           E
           (not D)
           Q2
           (not R2)
           (= L K)
           (= N M)
           (= P O)
           (= R Q)
           (= T S)
           (= V U)
           (= X W)
           (= Z Y)
           (= H1 G1)
           (= J1 I1)
           (= L1 K1)
           (= F1 E1)
           (= N1 M1)
           (= D1 C1)
           (= P1 O1)
           (= B1 A1)
           (= R1 Q1)
           (= T1 S1)
           (= V1 U1)
           (= X1 W1)
           (= Z1 Y1)
           (= B2 A2)
           (= D2 C2)
           (= F2 E2)
           (= H2 G2)
           (= J I)
           (= J2 I2)
           (= L2 K2))
      (and A
           (not B)
           (not C)
           (not H)
           G
           F
           E
           (not D)
           (not Q2)
           (not R2)
           (= L K)
           (= N M)
           (= P O)
           (= R Q)
           (= T S)
           (= V U)
           (= X W)
           (= Z Y)
           (= H1 G1)
           (= J1 I1)
           (= L1 K1)
           (= F1 E1)
           (= N1 M1)
           (= D1 C1)
           (= P1 O1)
           (= B1 A1)
           (= R1 Q1)
           (= T1 S1)
           (= V1 U1)
           (= X1 W1)
           (= Z1 Y1)
           (= B2 A2)
           (= D2 C2)
           (= F2 E2)
           (= H2 G2)
           (= J I)
           (= J2 I2)
           (= L2 K2))
      (and A
           (not B)
           (not C)
           (not H)
           G
           F
           E
           (not D)
           Q2
           R2
           (= L K)
           (= N M)
           (= P O)
           (= R Q)
           (= T S)
           (= V U)
           (= X W)
           (= Z Y)
           (= H1 G1)
           (= J1 I1)
           (= L1 K1)
           (= F1 E1)
           (= N1 M1)
           (= D1 C1)
           (= P1 O1)
           (= B1 A1)
           (= R1 Q1)
           (= T1 S1)
           (= V1 U1)
           (= X1 W1)
           (= Z1 Y1)
           (= B2 A2)
           (= D2 C2)
           (= F2 E2)
           (= H2 G2)
           (= J I)
           (= J2 I2)
           (= L2 K2))
      (and A
           B
           (not C)
           (not H)
           G
           F
           E
           (not D)
           Q2
           R2
           (= L K)
           (= N M)
           (= P O)
           (= R Q)
           (= T S)
           (= V U)
           (= X W)
           (= Z Y)
           (= H1 G1)
           (= J1 I1)
           (= L1 K1)
           (= F1 E1)
           (= N1 M1)
           (= D1 C1)
           (= P1 O1)
           (= B1 A1)
           (= R1 Q1)
           (= T1 S1)
           (= V1 U1)
           (= X1 W1)
           (= Z1 Y1)
           (= B2 A2)
           (= D2 C2)
           (= F2 E2)
           (= H2 G2)
           (= J I)
           (= J2 I2)
           (= L2 K2))
      (and A
           B
           (not C)
           (not H)
           G
           (not F)
           E
           D
           (not Q2)
           (not R2)
           (= L K)
           (= N M)
           (= P O)
           (= R Q)
           (= T S)
           (= V U)
           (= X W)
           (= Z Y)
           (= H1 G1)
           (= J1 I1)
           (= L1 K1)
           (= F1 2.0)
           (= N1 M1)
           (= D1 1.0)
           (= P1 O1)
           (= B1 0.0)
           (= R1 Q1)
           (= T1 S1)
           (= V1 U1)
           (= X1 W1)
           (= Z1 Y1)
           (= B2 A2)
           (= D2 C2)
           (= F2 E2)
           (= H2 G2)
           (= J 2.0)
           (= J2 I2)
           (= L2 K2))
      (and A
           B
           (not C)
           (not H)
           (not G)
           (not F)
           E
           D
           Q2
           (not R2)
           (<= I 0.0)
           (= L K)
           (= N M)
           (= P O)
           (= R Q)
           (= T S)
           (= V U)
           (= X W)
           (= Z Y)
           (= K1 0.0)
           (= H1 G1)
           (= J1 I1)
           (= F1 E1)
           (= N1 M1)
           (= D1 C1)
           (= P1 O1)
           (= B1 A1)
           (= R1 Q1)
           (= T1 S1)
           (= V1 U1)
           (= X1 W1)
           (= Z1 Y1)
           (= B2 A2)
           (= D2 C2)
           (= F2 E2)
           (= H2 G2)
           (= J I)
           (= J2 I2)
           (= L2 K2))
      (and A
           B
           (not C)
           (not H)
           G
           F
           (not E)
           D
           Q2
           (not R2)
           (not (<= I 0.0))
           (= L K)
           (= N M)
           (= P O)
           (= R Q)
           (= T S)
           (= V U)
           (= X W)
           (= Z Y)
           (= K1 0.0)
           (= H1 G1)
           (= J1 I1)
           (= F1 E1)
           (= N1 M1)
           (= D1 C1)
           (= P1 O1)
           (= B1 A1)
           (= R1 Q1)
           (= T1 S1)
           (= V1 U1)
           (= X1 W1)
           (= Z1 Y1)
           (= B2 A2)
           (= D2 C2)
           (= F2 E2)
           (= H2 G2)
           (= J I)
           (= J2 I2)
           (= L2 K2))
      a!24
      a!25
      a!26
      a!27
      (and A
           B
           (not C)
           (not H)
           G
           F
           E
           D
           (not Q2)
           R2
           (= L K)
           (= N M)
           (not (= C2 2.0))
           (not (= C2 1.0))
           (not (= C2 0.0))
           (= P O)
           (= R Q)
           (= T S)
           (= V U)
           (= X W)
           (= Z Y)
           (= H1 G1)
           (= J1 I1)
           (= L1 C2)
           (= L1 K1)
           (= F1 E1)
           (= N1 M1)
           (= D1 C1)
           (= P1 O1)
           (= B1 A1)
           (= R1 Q1)
           (= T1 S1)
           (= V1 U1)
           (= X1 W1)
           (= Z1 Y1)
           (= B2 A2)
           (= F2 E2)
           (= H2 G2)
           (= J I)
           (= J2 I2)
           (= L2 K2))
      (and A
           (not B)
           (not C)
           (not H)
           (not G)
           F
           E
           D
           (not Q2)
           R2
           (= L K)
           (= N M)
           (= P O)
           (= R Q)
           (= T S)
           (= V U)
           (= U1 I)
           (not (= U1 2.0))
           (not (= U1 1.0))
           (not (= U1 0.0))
           (= X W)
           (= Z Y)
           (= H1 G1)
           (= J1 I1)
           (= L1 K1)
           (= F1 E1)
           (= N1 M1)
           (= D1 C1)
           (= P1 O1)
           (= B1 A1)
           (= R1 Q1)
           (= T1 S1)
           (= X1 W1)
           (= Z1 Y1)
           (= B2 A2)
           (= D2 C2)
           (= F2 E2)
           (= H2 G2)
           (= J I)
           (= J2 I2)
           (= L2 K2)))))))))))))
      )
      (state H
       G
       D
       E
       F
       K
       M
       O
       Q
       S
       U
       W
       Y
       G1
       I1
       K1
       M1
       O1
       Q1
       S1
       U1
       W1
       Y1
       A2
       C2
       E2
       G2
       I2
       K2
       J
       B1
       D1
       F1)
    )
  )
)
(assert
  (forall ( (A Bool) (B Bool) (C Bool) (D Real) (E Real) (F Real) (G Real) (H Real) (I Real) (J Real) (K Real) (L Real) (M Real) (N Real) (O Real) (P Real) (Q Real) (R Real) (S Real) (T Real) (U Real) (V Real) (W Real) (X Real) (Y Real) (Z Real) (A1 Real) (B1 Real) (C1 Real) (D1 Real) (E1 Real) (F1 Bool) (G1 Bool) ) 
    (=>
      (and
        (state C B A F1 G1 E F G H I J K L P Q R S T U V W X Y Z A1 B1 C1 D1 E1 D M N O)
        (and (= B true) (not C) (= G1 true) (= F1 true) (not A))
      )
      false
    )
  )
)

(check-sat)
(exit)
